p cnf 89 307
-4 2 0
-4 -3 0
-2 3 4 0
1 -4 -5 0
-1 4 -5 0
1 4 5 0
-1 -4 5 0
7 5 0
7 -6 0
-5 6 -7 0
-8 1 0
-8 -1 0
-8 9 -10 0
8 -9 -10 0
-8 -9 10 0
8 9 10 0
-7 10 -11 0
7 -10 -11 0
-7 -10 11 0
7 10 11 0
-6 -12 -13 0
6 12 -13 0
-6 12 13 0
6 -12 13 0
15 -13 0
15 14 0
13 -14 -15 0
17 9 0
17 16 0
-9 -16 -17 0
-15 -17 -18 0
15 17 -18 0
-15 17 18 0
15 -17 18 0
19 -18 0
19 -14 0
18 14 -19 0
20 -11 0
20 19 0
11 -19 -20 0
-21 17 0
-21 2 0
-17 -2 21 0
7 5 -22 0
-7 -5 -22 0
7 -5 22 0
-7 5 22 0
14 22 -23 0
-14 -22 -23 0
14 -22 23 0
-14 22 23 0
24 6 0
24 -5 0
-6 5 -24 0
-25 -15 0
-25 -24 0
15 24 25 0
-26 -22 0
-26 25 0
22 -25 26 0
23 -26 -27 0
-23 26 -27 0
23 26 27 0
-23 -26 27 0
28 21 0
28 27 0
-21 -27 -28 0
-30 29 0
-30 6 0
-29 -6 30 0
-31 30 0
-31 -22 0
-30 22 31 0
-28 31 -32 0
28 -31 -32 0
-28 -31 32 0
28 31 32 0
-34 -22 0
-34 33 0
22 -33 34 0
-30 -34 -35 0
30 34 -35 0
-30 34 35 0
30 -34 35 0
-35 16 -36 0
35 -16 -36 0
-35 -16 36 0
35 16 36 0
-37 9 0
-37 -13 0
-9 13 37 0
38 -37 0
38 -16 0
37 16 -38 0
-39 36 0
-39 38 0
-36 -38 39 0
-25 -5 -41 0
25 5 -41 0
-25 5 41 0
25 -5 41 0
-42 -40 0
-42 -41 0
40 41 42 0
43 15 0
43 2 0
-15 -2 -43 0
-1 -43 -44 0
1 43 -44 0
-1 43 44 0
1 -43 44 0
-45 33 0
-45 44 0
-33 -44 45 0
-42 -45 -46 0
42 45 -46 0
-42 45 46 0
42 -45 46 0
16 -35 -47 0
-16 35 -47 0
16 35 47 0
-16 -35 47 0
-48 -46 0
-48 -47 0
46 47 48 0
-49 39 0
-49 48 0
-39 -48 49 0
32 -49 -50 0
-32 49 -50 0
32 49 50 0
-32 -49 50 0
51 12 0
51 3 0
-12 -3 -51 0
-52 7 0
-52 -24 0
-7 24 52 0
-51 52 -53 0
51 -52 -53 0
-51 -52 53 0
51 52 53 0
54 -16 0
54 9 0
16 -9 -54 0
-55 53 0
-55 -54 0
-53 54 55 0
-56 -35 0
-56 -10 0
35 10 56 0
57 -34 0
57 34 0
-56 -57 -58 0
56 57 -58 0
-56 57 58 0
56 -57 58 0
-59 -55 0
-59 58 0
55 -58 59 0
50 -59 -60 0
-50 59 -60 0
50 59 60 0
-50 -59 60 0
-62 -38 0
-62 -1 0
38 1 62 0
-61 -62 -63 0
61 62 -63 0
-61 62 63 0
61 -62 63 0
30 64 -65 0
-30 -64 -65 0
30 -64 65 0
-30 64 65 0
66 -65 0
66 6 0
65 -6 -66 0
63 -66 -67 0
-63 66 -67 0
63 66 67 0
-63 -66 67 0
-5 -24 -68 0
5 24 -68 0
-5 24 68 0
5 -24 68 0
67 68 -69 0
-67 -68 -69 0
67 -68 69 0
-67 68 69 0
-60 69 -70 0
60 -69 -70 0
-60 -69 70 0
60 69 70 0
71 20 0
71 -70 0
-20 70 -71 0
72 3 0
72 -5 0
-3 5 -72 0
-72 -34 -73 0
72 34 -73 0
-72 34 73 0
72 -34 73 0
-73 23 -74 0
73 -23 -74 0
-73 -23 74 0
73 23 74 0
-75 -16 0
-75 74 0
16 -74 75 0
7 29 -76 0
-7 -29 -76 0
7 -29 76 0
-7 29 76 0
-61 -76 -77 0
61 76 -77 0
-61 76 77 0
61 -76 77 0
78 65 0
78 -77 0
-65 77 -78 0
-75 -78 -79 0
75 78 -79 0
-75 78 79 0
75 -78 79 0
80 -73 0
80 -76 0
73 76 -80 0
81 -25 0
81 80 0
25 -80 -81 0
82 -14 0
82 26 0
14 -26 -82 0
81 82 -83 0
-81 -82 -83 0
81 -82 83 0
-81 82 83 0
-84 3 0
-84 9 0
-3 -9 84 0
-86 -84 0
-86 85 0
84 -85 86 0
-83 86 -87 0
83 -86 -87 0
-83 -86 87 0
83 86 87 0
-88 -79 0
-88 -87 0
79 87 88 0
-89 -71 0
-89 88 0
71 -88 89 0
43 74 46 -75 77 0
-25 -45 4 0
-47 -22 0
14 39 0
-65 16 60 -46 0
-35 84 0
10 4 -57 0
-74 53 -9 -42 0
36 -51 88 46 0
-35 16 0
80 44 27 0
21 -79 11 68 73 0
18 -9 15 0
49 66 23 70 41 62 0
60 -72 0
-68 69 35 0
-27 46 67 21 0
-77 -20 33 0
-23 78 85 -12 0
83 88 -79 0
4 -52 -16 -24 0
-69 -49 3 -40 0
35 -10 31 0
60 80 26 0
-61 63 77 46 4 0
7 70 -6 81 0
2 31 0
58 -27 55 25 -84 -33 0
17 -33 8 62 0
-3 -89 41 -32 0
17 68 5 0
58 70 63 -86 14 0
82 45 32 -76 36 44 0
41 0
23 8 -53 -88 26 80 0
-31 5 -53 88 -36 0
-84 39 0
-12 -45 0
-52 27 -30 -38 0
70 -61 79 -20 73 -27 0
70 4 12 -78 0
33 83 -84 0
29 -66 23 75 0
-84 -64 -54 9 0
-70 88 0
65 79 51 -38 0
-39 -12 58 87 0
-60 -55 -84 0
84 -32 36 0
-17 2 82 42 -24 15 0
-83 -10 -71 -55 -64 -85 0
89 0
